Optimal - objective value -1244.00000000
      8 x_8                        1                      32
      9 x_9                        1                      -7
     10 x_10                       1                       0
     22 x_22                       1                     222
     40 x_40                       1                     -26
     44 x_44                       1                       0
     51 x_51                       1                     -10
     53 x_53                       1                       0
     57 x_57                       1                     -27
     58 x_58                       1                       0
     59 x_59                       1                       0
     68 x_68                       1                       0
     69 x_69                       1                       0
     88 x_88                       1                     268
     95 x_95                       1                      68
